\ENCODING=ISO-8859-1
\Problem name: SVM

Minimize
 obj: ksi0 + ksi1 + ksi2 + ksi3 + ksi4 + ksi5 + ksi6 + ksi7 + ksi8 + ksi9
      + ksi10 + ksi11 + ksi12 + ksi13 + ksi14 + ksi15 + ksi16 + ksi17 + ksi18
      + ksi19 + ksi20 + ksi21 + ksi22 + ksi23 + ksi24 + ksi25 + ksi26 + ksi27
      + ksi28 + ksi29 + ksi30 + ksi31 + ksi32 + ksi33 + ksi34 + ksi35 + ksi36
      + ksi37 + ksi38 + ksi39 + ksi40 + ksi41 + ksi42 + ksi43 + ksi44 + ksi45
      + ksi46 + ksi47 + ksi48 + ksi49 + ksi50 + ksi51 + ksi52 + ksi53 + ksi54
      + ksi55 + ksi56 + ksi57 + ksi58 + ksi59 + ksi60 + ksi61 + ksi62 + ksi63
      + ksi64 + ksi65 + ksi66 + ksi67 + ksi68 + ksi69 + ksi70 + ksi71 + ksi72
      + ksi73 + ksi74 + ksi75 + ksi76 + ksi77 + ksi78 + ksi79 + ksi80 + ksi81
      + ksi82 + ksi83 + ksi84 + ksi85 + ksi86 + [ w0 ^2 + w1 ^2 + w2 ^2 + w3 ^2
      + w4 ^2 + w5 ^2 + w6 ^2 + w7 ^2 ] / 2
Subject To
 c1:  - 6 w0 - 148 w1 - 72 w2 - 35 w3 - 33.6 w5 - 0.627 w6 - 50 w7 - b + ksi0
      >= 1
 c2:  w0 + 85 w1 + 66 w2 + 29 w3 + 26.6 w5 + 0.351 w6 + 31 w7 + b + ksi1 >= 1
 c3:  - 8 w0 - 183 w1 - 64 w2 - 23.3 w5 - 0.672 w6 - 32 w7 - b + ksi2 >= 1
 c4:  w0 + 89 w1 + 66 w2 + 23 w3 + 94 w4 + 28.1 w5 + 0.167 w6 + 21 w7 + b
      + ksi3 >= 1
 c5:  - 137 w1 - 40 w2 - 35 w3 - 168 w4 - 43.1 w5 - 2.288 w6 - 33 w7 - b + ksi4
      >= 1
 c6:  5 w0 + 116 w1 + 74 w2 + 25.6 w5 + 0.201 w6 + 30 w7 + b + ksi5 >= 1
 c7:  - 3 w0 - 78 w1 - 50 w2 - 32 w3 - 88 w4 - 31 w5 - 0.248 w6 - 26 w7 - b
      + ksi6 >= 1
 c8:  10 w0 + 115 w1 + 35.3 w5 + 0.134 w6 + 29 w7 + b + ksi7 >= 1
 c9:  - 2 w0 - 197 w1 - 70 w2 - 45 w3 - 543 w4 - 30.5 w5 - 0.158 w6 - 53 w7 - b
      + ksi8 >= 1
 c10: - 8 w0 - 125 w1 - 96 w2 - 0.232 w6 - 54 w7 - b + ksi9 >= 1
 c11: 4 w0 + 110 w1 + 92 w2 + 37.6 w5 + 0.191 w6 + 30 w7 + b + ksi10 >= 1
 c12: - 10 w0 - 168 w1 - 74 w2 - 38 w5 - 0.537 w6 - 34 w7 - b + ksi11 >= 1
 c13: 10 w0 + 139 w1 + 80 w2 + 27.1 w5 + 1.441 w6 + 57 w7 + b + ksi12 >= 1
 c14: - w0 - 189 w1 - 60 w2 - 23 w3 - 846 w4 - 30.1 w5 - 0.398 w6 - 59 w7 - b
      + ksi13 >= 1
 c15: - 5 w0 - 166 w1 - 72 w2 - 19 w3 - 175 w4 - 25.8 w5 - 0.587 w6 - 51 w7 - b
      + ksi14 >= 1
 c16: - 7 w0 - 100 w1 - 30 w5 - 0.484 w6 - 32 w7 - b + ksi15 >= 1
 c17: - 118 w1 - 84 w2 - 47 w3 - 230 w4 - 45.8 w5 - 0.551 w6 - 31 w7 - b
      + ksi16 >= 1
 c18: - 7 w0 - 107 w1 - 74 w2 - 29.6 w5 - 0.254 w6 - 31 w7 - b + ksi17 >= 1
 c19: w0 + 103 w1 + 30 w2 + 38 w3 + 83 w4 + 43.3 w5 + 0.183 w6 + 33 w7 + b
      + ksi18 >= 1
 c20: - w0 - 115 w1 - 70 w2 - 30 w3 - 96 w4 - 34.6 w5 - 0.529 w6 - 32 w7 - b
      + ksi19 >= 1
 c21: 3 w0 + 126 w1 + 88 w2 + 41 w3 + 235 w4 + 39.3 w5 + 0.704 w6 + 27 w7 + b
      + ksi20 >= 1
 c22: 8 w0 + 99 w1 + 84 w2 + 35.4 w5 + 0.388 w6 + 50 w7 + b + ksi21 >= 1
 c23: - 7 w0 - 196 w1 - 90 w2 - 39.8 w5 - 0.451 w6 - 41 w7 - b + ksi22 >= 1
 c24: - 9 w0 - 119 w1 - 80 w2 - 35 w3 - 29 w5 - 0.263 w6 - 29 w7 - b + ksi23
      >= 1
 c25: - 11 w0 - 143 w1 - 94 w2 - 33 w3 - 146 w4 - 36.6 w5 - 0.254 w6 - 51 w7
      - b + ksi24 >= 1
 c26: - 10 w0 - 125 w1 - 70 w2 - 26 w3 - 115 w4 - 31.1 w5 - 0.205 w6 - 41 w7
      - b + ksi25 >= 1
 c27: - 7 w0 - 147 w1 - 76 w2 - 39.4 w5 - 0.257 w6 - 43 w7 - b + ksi26 >= 1
 c28: w0 + 97 w1 + 66 w2 + 15 w3 + 140 w4 + 23.2 w5 + 0.487 w6 + 22 w7 + b
      + ksi27 >= 1
 c29: 13 w0 + 145 w1 + 82 w2 + 19 w3 + 110 w4 + 22.2 w5 + 0.245 w6 + 57 w7 + b
      + ksi28 >= 1
 c30: 5 w0 + 117 w1 + 92 w2 + 34.1 w5 + 0.337 w6 + 38 w7 + b + ksi29 >= 1
 c31: 5 w0 + 109 w1 + 75 w2 + 26 w3 + 36 w5 + 0.546 w6 + 60 w7 + b + ksi30 >= 1
 c32: - 3 w0 - 158 w1 - 76 w2 - 36 w3 - 245 w4 - 31.6 w5 - 0.851 w6 - 28 w7 - b
      + ksi31 >= 1
 c33: 3 w0 + 88 w1 + 58 w2 + 11 w3 + 54 w4 + 24.8 w5 + 0.267 w6 + 22 w7 + b
      + ksi32 >= 1
 c34: 6 w0 + 92 w1 + 92 w2 + 19.9 w5 + 0.188 w6 + 28 w7 + b + ksi33 >= 1
 c35: 10 w0 + 122 w1 + 78 w2 + 31 w3 + 27.6 w5 + 0.512 w6 + 45 w7 + b + ksi34
      >= 1
 c36: 4 w0 + 103 w1 + 60 w2 + 33 w3 + 192 w4 + 24 w5 + 0.966 w6 + 33 w7 + b
      + ksi35 >= 1
 c37: 11 w0 + 138 w1 + 76 w2 + 33.2 w5 + 0.42 w6 + 35 w7 + b + ksi36 >= 1
 c38: - 9 w0 - 102 w1 - 76 w2 - 37 w3 - 32.9 w5 - 0.665 w6 - 46 w7 - b + ksi37
      >= 1
 c39: - 2 w0 - 90 w1 - 68 w2 - 42 w3 - 38.2 w5 - 0.503 w6 - 27 w7 - b + ksi38
      >= 1
 c40: - 4 w0 - 111 w1 - 72 w2 - 47 w3 - 207 w4 - 37.1 w5 - 1.39 w6 - 56 w7 - b
      + ksi39 >= 1
 c41: 3 w0 + 180 w1 + 64 w2 + 25 w3 + 70 w4 + 34 w5 + 0.271 w6 + 26 w7 + b
      + ksi40 >= 1
 c42: 7 w0 + 133 w1 + 84 w2 + 40.2 w5 + 0.696 w6 + 37 w7 + b + ksi41 >= 1
 c43: 7 w0 + 106 w1 + 92 w2 + 18 w3 + 22.7 w5 + 0.235 w6 + 48 w7 + b + ksi42
      >= 1
 c44: - 9 w0 - 171 w1 - 110 w2 - 24 w3 - 240 w4 - 45.4 w5 - 0.721 w6 - 54 w7
      - b + ksi43 >= 1
 c45: 7 w0 + 159 w1 + 64 w2 + 27.4 w5 + 0.294 w6 + 40 w7 + b + ksi44 >= 1
 c46: - 180 w1 - 66 w2 - 39 w3 - 42 w5 - 1.893 w6 - 25 w7 - b + ksi45 >= 1
 c47: w0 + 146 w1 + 56 w2 + 29.7 w5 + 0.564 w6 + 29 w7 + b + ksi46 >= 1
 c48: 2 w0 + 71 w1 + 70 w2 + 27 w3 + 28 w5 + 0.586 w6 + 22 w7 + b + ksi47 >= 1
 c49: - 7 w0 - 103 w1 - 66 w2 - 32 w3 - 39.1 w5 - 0.344 w6 - 31 w7 - b + ksi48
      >= 1
 c50: 7 w0 + 105 w1 + 0.305 w6 + 24 w7 + b + ksi49 >= 1
 c51: w0 + 103 w1 + 80 w2 + 11 w3 + 82 w4 + 19.4 w5 + 0.491 w6 + 22 w7 + b
      + ksi50 >= 1
 c52: w0 + 101 w1 + 50 w2 + 15 w3 + 36 w4 + 24.2 w5 + 0.526 w6 + 26 w7 + b
      + ksi51 >= 1
 c53: 5 w0 + 88 w1 + 66 w2 + 21 w3 + 23 w4 + 24.4 w5 + 0.342 w6 + 30 w7 + b
      + ksi52 >= 1
 c54: - 8 w0 - 176 w1 - 90 w2 - 34 w3 - 300 w4 - 33.7 w5 - 0.467 w6 - 58 w7 - b
      + ksi53 >= 1
 c55: 7 w0 + 150 w1 + 66 w2 + 42 w3 + 342 w4 + 34.7 w5 + 0.718 w6 + 42 w7 + b
      + ksi54 >= 1
 c56: w0 + 73 w1 + 50 w2 + 10 w3 + 23 w5 + 0.248 w6 + 21 w7 + b + ksi55 >= 1
 c57: - 7 w0 - 187 w1 - 68 w2 - 39 w3 - 304 w4 - 37.7 w5 - 0.254 w6 - 41 w7 - b
      + ksi56 >= 1
 c58: 100 w1 + 88 w2 + 60 w3 + 110 w4 + 46.8 w5 + 0.962 w6 + 31 w7 + b + ksi57
      >= 1
 c59: 146 w1 + 82 w2 + 40.5 w5 + 1.781 w6 + 44 w7 + b + ksi58 >= 1
 c60: 105 w1 + 64 w2 + 41 w3 + 142 w4 + 41.5 w5 + 0.173 w6 + 22 w7 + b + ksi59
      >= 1
 c61: 2 w0 + 84 w1 + 0.304 w6 + 21 w7 + b + ksi60 >= 1
 c62: - 8 w0 - 133 w1 - 72 w2 - 32.9 w5 - 0.27 w6 - 39 w7 - b + ksi61 >= 1
 c63: 5 w0 + 44 w1 + 62 w2 + 25 w5 + 0.587 w6 + 36 w7 + b + ksi62 >= 1
 c64: 2 w0 + 141 w1 + 58 w2 + 34 w3 + 128 w4 + 25.4 w5 + 0.699 w6 + 24 w7 + b
      + ksi63 >= 1
 c65: - 7 w0 - 114 w1 - 66 w2 - 32.8 w5 - 0.258 w6 - 42 w7 - b + ksi64 >= 1
 c66: 5 w0 + 99 w1 + 74 w2 + 27 w3 + 29 w5 + 0.203 w6 + 32 w7 + b + ksi65 >= 1
 c67: - 109 w1 - 88 w2 - 30 w3 - 32.5 w5 - 0.855 w6 - 38 w7 - b + ksi66 >= 1
 c68: 2 w0 + 109 w1 + 92 w2 + 42.7 w5 + 0.845 w6 + 54 w7 + b + ksi67 >= 1
 c69: w0 + 95 w1 + 66 w2 + 13 w3 + 38 w4 + 19.6 w5 + 0.334 w6 + 25 w7 + b
      + ksi68 >= 1
 c70: 4 w0 + 146 w1 + 85 w2 + 27 w3 + 100 w4 + 28.9 w5 + 0.189 w6 + 27 w7 + b
      + ksi69 >= 1
 c71: - 2 w0 - 100 w1 - 66 w2 - 20 w3 - 90 w4 - 32.9 w5 - 0.867 w6 - 28 w7 - b
      + ksi70 >= 1
 c72: 5 w0 + 139 w1 + 64 w2 + 35 w3 + 140 w4 + 28.6 w5 + 0.411 w6 + 26 w7 + b
      + ksi71 >= 1
 c73: - 13 w0 - 126 w1 - 90 w2 - 43.4 w5 - 0.583 w6 - 42 w7 - b + ksi72 >= 1
 c74: 4 w0 + 129 w1 + 86 w2 + 20 w3 + 270 w4 + 35.1 w5 + 0.231 w6 + 23 w7 + b
      + ksi73 >= 1
 c75: w0 + 79 w1 + 75 w2 + 30 w3 + 32 w5 + 0.396 w6 + 22 w7 + b + ksi74 >= 1
 c76: w0 + 48 w2 + 20 w3 + 24.7 w5 + 0.14 w6 + 22 w7 + b + ksi75 >= 1
 c77: 7 w0 + 62 w1 + 78 w2 + 32.6 w5 + 0.391 w6 + 41 w7 + b + ksi76 >= 1
 c78: 5 w0 + 95 w1 + 72 w2 + 33 w3 + 37.7 w5 + 0.37 w6 + 27 w7 + b + ksi77 >= 1
 c79: - 131 w1 - 43.2 w5 - 0.27 w6 - 26 w7 - b + ksi78 >= 1
 c80: 2 w0 + 112 w1 + 66 w2 + 22 w3 + 25 w5 + 0.307 w6 + 24 w7 + b + ksi79 >= 1
 c81: 3 w0 + 113 w1 + 44 w2 + 13 w3 + 22.4 w5 + 0.14 w6 + 22 w7 + b + ksi80
      >= 1
 c82: 2 w0 + 74 w1 + 0.102 w6 + 22 w7 + b + ksi81 >= 1
 c83: 7 w0 + 83 w1 + 78 w2 + 26 w3 + 71 w4 + 29.3 w5 + 0.767 w6 + 36 w7 + b
      + ksi82 >= 1
 c84: 101 w1 + 65 w2 + 28 w3 + 24.6 w5 + 0.237 w6 + 22 w7 + b + ksi83 >= 1
 c85: - 5 w0 - 137 w1 - 108 w2 - 48.8 w5 - 0.227 w6 - 37 w7 - b + ksi84 >= 1
 c86: 2 w0 + 110 w1 + 74 w2 + 29 w3 + 125 w4 + 32.4 w5 + 0.698 w6 + 27 w7 + b
      + ksi85 >= 1
 c87: 13 w0 + 106 w1 + 72 w2 + 54 w3 + 36.6 w5 + 0.178 w6 + 45 w7 + b + ksi86
      >= 1
Bounds
-1 <= b <= 1
End
